38416 40601 
37690 41011 
39314 40022 
39485 39992 
37652 41042 
38660 40563 
38444 40591 
38058 40850 
40548 39093 
36998 41184 
37417 41054 
39226 40079 
36763 41196 
36493 41305 
36614 41273 
34525 41382 
35708 41359 
36258 41317 
